GLPSOL--GLPK LP/MIP Solver 5.0
Parameter(s) specified in the command line:
 --lp ../modeles/4_464.lp --log 4_464.log
Reading problem data from '../modeles/4_464.lp'...
1873 rows, 3720 columns, 13004 non-zeros
1856 integer variables, all of which are binary
5603 lines were read
GLPK Integer Optimizer 5.0
1873 rows, 3720 columns, 13004 non-zeros
1856 integer variables, all of which are binary
Preprocessing...
1832 constraint coefficient(s) were reduced
1873 rows, 3716 columns, 13000 non-zeros
1856 integer variables, all of which are binary
Scaling...
 A: min|aij| =  7.432e-05  max|aij| =  4.000e+00  ratio =  5.382e+04
GM: min|aij| =  6.565e-02  max|aij| =  1.523e+01  ratio =  2.320e+02
EQ: min|aij| =  4.310e-03  max|aij| =  1.000e+00  ratio =  2.320e+02
2N: min|aij| =  3.906e-03  max|aij| =  1.758e+00  ratio =  4.499e+02
Constructing initial basis...
Size of triangular part is 1873
Solving LP relaxation...
GLPK Simplex Optimizer 5.0
1873 rows, 3716 columns, 13000 non-zeros
      0: obj =   8.000000000e+00 inf =   1.950e+01 (9)
    107: obj =   4.511579945e-01 inf =   0.000e+00 (0)
*   342: obj =  -2.000000000e+00 inf =   2.320e-14 (0)
OPTIMAL LP SOLUTION FOUND
Integer optimization begins...
Long-step dual simplex will be used
+   342: mip =     not found yet >=              -inf        (1; 0)
+   342: >>>>>  -2.000000000e+00 >=  -2.000000000e+00   0.0% (1; 0)
+   342: mip =  -2.000000000e+00 >=     tree is empty   0.0% (0; 1)
INTEGER OPTIMAL SOLUTION FOUND
Time used:   0.0 secs
Memory used: 5.3 Mb (5515710 bytes)
